
Gurobi 9.0.1 (linux64) logging started Thu Apr 30 05:57:47 2020

Gurobi Optimizer version 9.0.1 build v9.0.1rc0 (linux64)
Optimize a model with 932 rows, 990 columns and 7056 nonzeros
Model fingerprint: 0x872e912a
Variable types: 0 continuous, 990 integer (980 binary)
Coefficient statistics:
  Matrix range     [1e+00, 5e+00]
  Objective range  [2e+00, 1e+02]
  Bounds range     [1e+00, 1e+00]
  RHS range        [1e+00, 1e+00]

User MIP start produced solution with objective 495 (0.00s)
Loaded user MIP start with objective 495

Presolve removed 338 rows and 420 columns
Presolve time: 0.04s
Presolved: 594 rows, 570 columns, 4662 nonzeros
Variable types: 0 continuous, 570 integer (562 binary)

Root relaxation: objective 3.784364e+02, 405 iterations, 0.02 seconds

    Nodes    |    Current Node    |     Objective Bounds      |     Work
 Expl Unexpl |  Obj  Depth IntInf | Incumbent    BestBd   Gap | It/Node Time

     0     0  378.43642    0  161  495.00000  378.43642  23.5%     -    0s
     0     0  390.75510    0  174  495.00000  390.75510  21.1%     -    0s
     0     0  393.86914    0  199  495.00000  393.86914  20.4%     -    0s
     0     0  393.99532    0  196  495.00000  393.99532  20.4%     -    0s
     0     0  405.04600    0  205  495.00000  405.04600  18.2%     -    0s
     0     0  407.35150    0  198  495.00000  407.35150  17.7%     -    0s
     0     0  407.36871    0  195  495.00000  407.36871  17.7%     -    0s
     0     0  414.73172    0  212  495.00000  414.73172  16.2%     -    0s
     0     0  415.16020    0  213  495.00000  415.16020  16.1%     -    0s
     0     0  415.20523    0  210  495.00000  415.20523  16.1%     -    0s
     0     0  415.23314    0  213  495.00000  415.23314  16.1%     -    0s
     0     0  421.48381    0  221  495.00000  421.48381  14.9%     -    0s
     0     0  421.96932    0  225  495.00000  421.96932  14.8%     -    0s
     0     0  422.04928    0  223  495.00000  422.04928  14.7%     -    0s
     0     0  422.05763    0  227  495.00000  422.05763  14.7%     -    0s
     0     0  422.27519    0  205  495.00000  422.27519  14.7%     -    0s
     0     0  422.27638    0  214  495.00000  422.27638  14.7%     -    0s
     0     0  423.01832    0  218  495.00000  423.01832  14.5%     -    0s
     0     0  423.14595    0  214  495.00000  423.14595  14.5%     -    0s
     0     0  423.14640    0  217  495.00000  423.14640  14.5%     -    0s
     0     0  423.24090    0  213  495.00000  423.24090  14.5%     -    0s
     0     0  423.24090    0  213  495.00000  423.24090  14.5%     -    0s
     0     0  423.28418    0  167  495.00000  423.28418  14.5%     -    1s
     0     0  423.28418    0  205  495.00000  423.28418  14.5%     -    1s
     0     0  424.50518    0  205  495.00000  424.50518  14.2%     -    1s
     0     0  424.50975    0  205  495.00000  424.50975  14.2%     -    1s
     0     0  426.22116    0  221  495.00000  426.22116  13.9%     -    1s
     0     0  426.67853    0  235  495.00000  426.67853  13.8%     -    1s
     0     0  426.69516    0  235  495.00000  426.69516  13.8%     -    1s
     0     0  428.71344    0  221  495.00000  428.71344  13.4%     -    1s
H    0     0                     456.0000000  428.71344  5.98%     -    1s
     0     0  429.37452    0  217  456.00000  429.37452  5.84%     -    1s
     0     0  429.40536    0  221  456.00000  429.40536  5.83%     -    1s
     0     0  430.55313    0  223  456.00000  430.55313  5.58%     -    1s
     0     0  430.67945    0  203  456.00000  430.67945  5.55%     -    1s
     0     0  430.72840    0  206  456.00000  430.72840  5.54%     -    1s
     0     0  430.73808    0  214  456.00000  430.73808  5.54%     -    1s
     0     0  430.77774    0  184  456.00000  430.77774  5.53%     -    1s
     0     0  430.78109    0  181  456.00000  430.78109  5.53%     -    1s
     0     0  430.80889    0  213  456.00000  430.80889  5.52%     -    1s
     0     0  430.80889    0  213  456.00000  430.80889  5.52%     -    1s
     0     0  430.98725    0  161  456.00000  430.98725  5.49%     -    1s
H    0     0                     452.0000000  430.98725  4.65%     -    1s
     0     0  431.34884    0  168  452.00000  431.34884  4.57%     -    1s
H    0     0                     448.0000000  431.34884  3.72%     -    1s
H    0     0                     440.0000000  431.34884  1.97%     -    1s
     0     0  432.24961    0  132  440.00000  432.24961  1.76%     -    1s
     0     0  432.28944    0  136  440.00000  432.28944  1.75%     -    1s
     0     0  432.29153    0  135  440.00000  432.29153  1.75%     -    1s
     0     0  433.14697    0  151  440.00000  433.14697  1.56%     -    1s
     0     0  433.14697    0   98  440.00000  433.14697  1.56%     -    2s
     0     0  434.36892    0  106  440.00000  434.36892  1.28%     -    2s
     0     0  434.56943    0  106  440.00000  434.56943  1.23%     -    2s
     0     0  434.57253    0  107  440.00000  434.57253  1.23%     -    2s
     0     0  435.08724    0  105  440.00000  435.08724  1.12%     -    2s
     0     0  435.13817    0  104  440.00000  435.13817  1.10%     -    2s
     0     0  435.13817    0  104  440.00000  435.13817  1.10%     -    2s
     0     0  436.22649    0  105  440.00000  436.22649  0.86%     -    2s
     0     0  436.23273    0   99  440.00000  436.23273  0.86%     -    2s
     0     0  436.23937    0   98  440.00000  436.23937  0.85%     -    2s
     0     0  436.23954    0  102  440.00000  436.23954  0.85%     -    2s
     0     0  436.44673    0  106  440.00000  436.44673  0.81%     -    2s
     0     0  436.46637    0  103  440.00000  436.46637  0.80%     -    2s
     0     0  436.46797    0  106  440.00000  436.46797  0.80%     -    2s
     0     0  436.48771    0  108  440.00000  436.48771  0.80%     -    2s
     0     0  436.48821    0  107  440.00000  436.48821  0.80%     -    2s
     0     0  436.51442    0  108  440.00000  436.51442  0.79%     -    2s
     0     0  436.54396    0  107  440.00000  436.54396  0.79%     -    2s
     0     0  436.54743    0  112  440.00000  436.54743  0.78%     -    2s
     0     0  436.54844    0  112  440.00000  436.54844  0.78%     -    2s
     0     0  436.59913    0  106  440.00000  436.59913  0.77%     -    2s
     0     0  436.60559    0  112  440.00000  436.60559  0.77%     -    2s
     0     0  436.63361    0  111  440.00000  436.63361  0.77%     -    2s
     0     0  436.63415    0  110  440.00000  436.63415  0.76%     -    2s
     0     0  436.64768    0  112  440.00000  436.64768  0.76%     -    2s
     0     0  436.65157    0  114  440.00000  436.65157  0.76%     -    2s
     0     0  436.65157    0  114  440.00000  436.65157  0.76%     -    2s
     0     0  436.73251    0  102  440.00000  436.73251  0.74%     -    2s
     0     0  436.75680    0  106  440.00000  436.75680  0.74%     -    2s
     0     0  436.76242    0  105  440.00000  436.76242  0.74%     -    2s
     0     0  436.76542    0  108  440.00000  436.76542  0.74%     -    2s
     0     0  436.76543    0  108  440.00000  436.76543  0.74%     -    2s
     0     0  436.78351    0   95  440.00000  436.78351  0.73%     -    2s
     0     0  436.78351    0  101  440.00000  436.78351  0.73%     -    2s
     0     0  436.78750    0  106  440.00000  436.78750  0.73%     -    2s
     0     0  436.78750    0  101  440.00000  436.78750  0.73%     -    2s
     0     2  436.83364    0   99  440.00000  436.83364  0.72%     -    2s

Cutting planes:
  Clique: 5
  MIR: 17
  Zero half: 2
  Mod-K: 1
  RLT: 18
  Relax-and-lift: 3

Explored 16 nodes (6432 simplex iterations) in 2.31 seconds
Thread count was 1 (of 40 available processors)

Solution count 5: 440 448 452 ... 495

Optimal solution found (tolerance 1.00e-04)
Best objective 4.400000000000e+02, best bound 4.400000000000e+02, gap 0.0000%

User-callback calls 1023, time in user-callback 0.00 sec
